(declare-fun e () String)
(declare-fun c () String)
(declare-fun g () String)
(declare-fun b () String)
(declare-fun f () String)
(declare-fun a () String)
(declare-fun h () String)
(assert (= (str.++ g "gfa") (str.++ a "d" f b)))
(assert (= (str.++ "a" f) a))
(assert (= (str.++ h "g" h "ad") (str.++ e c g "e")))

(check-sat)
